# 14254
param k := 6;
param n := 60;
param s := 1;
set E :=  (0,1) (0,19) (2,13) (2,41) (2,46) (3,13) (3,52) (4,10) (4,59) (5,26) (6,18) (6,50) (7,44) (7,50) (8,37) (9,22) (9,42) (9,57) (10,34) (11,18) (11,54) (12,21) (13,38) (14,49) (15,47) (15,48) (15,58) (15,59) (16,33) (16,36) (16,43) (17,55) (18,21) (19,36) (19,44) (20,33) (20,37) (21,27) (21,32) (21,52) (21,55) (22,28) (23,48) (24,49) (25,26) (26,29) (26,40) (27,45) (29,51) (30,42) (30,58) (31,39) (31,45) (34,49) (35,53) (35,58) (38,47) (43,45) (49,51) (49,56);